c FILE: i080-141

c SOURCE: From steinlib

c DESCRIPTION: Steinlib instance with 80 nodes and 632 edges.

p edge 80 632
e 1 3
e 1 11
e 1 14
e 1 17
e 1 21
e 1 22
e 1 23
e 1 31
e 1 39
e 1 42
e 1 44
e 1 47
e 1 48
e 1 55
e 1 56
e 1 63
e 1 69
e 1 70
e 1 76
e 1 78
e 2 7
e 2 23
e 2 25
e 2 29
e 2 31
e 2 33
e 2 46
e 2 48
e 2 52
e 2 60
e 2 70
e 2 80
e 3 8
e 3 11
e 3 14
e 3 15
e 3 19
e 3 21
e 3 22
e 3 25
e 3 26
e 3 27
e 3 31
e 3 36
e 3 46
e 3 64
e 3 67
e 3 68
e 3 70
e 3 73
e 3 74
e 3 76
e 4 20
e 4 33
e 4 58
e 4 60
e 4 63
e 4 65
e 4 66
e 4 74
e 4 76
e 4 78
e 5 6
e 5 10
e 5 11
e 5 12
e 5 18
e 5 28
e 5 33
e 5 34
e 5 37
e 5 41
e 5 49
e 5 52
e 5 59
e 5 64
e 5 77
e 6 18
e 6 19
e 6 21
e 6 31
e 6 34
e 6 38
e 6 46
e 6 49
e 6 50
e 6 51
e 6 55
e 6 66
e 6 67
e 6 68
e 6 69
e 6 72
e 7 18
e 7 19
e 7 26
e 7 37
e 7 50
e 7 51
e 7 57
e 7 63
e 7 65
e 7 68
e 7 72
e 7 73
e 7 77
e 8 13
e 8 27
e 8 28
e 8 32
e 8 35
e 8 42
e 8 57
e 8 61
e 8 62
e 8 65
e 8 68
e 8 74
e 8 80
e 9 13
e 9 16
e 9 24
e 9 25
e 9 32
e 9 41
e 9 50
e 9 62
e 9 67
e 9 69
e 9 70
e 9 80
e 10 34
e 10 43
e 10 51
e 10 57
e 10 68
e 10 69
e 10 71
e 10 74
e 10 78
e 11 12
e 11 17
e 11 19
e 11 28
e 11 37
e 11 46
e 11 48
e 11 57
e 11 71
e 11 75
e 11 77
e 12 30
e 12 31
e 12 33
e 12 36
e 12 39
e 12 45
e 12 51
e 12 53
e 12 57
e 12 74
e 12 78
e 13 25
e 13 26
e 13 37
e 13 58
e 13 60
e 13 62
e 14 22
e 14 24
e 14 37
e 14 47
e 14 48
e 14 56
e 14 70
e 14 74
e 15 17
e 15 21
e 15 22
e 15 33
e 15 38
e 15 45
e 15 51
e 15 53
e 15 62
e 15 64
e 15 66
e 15 70
e 15 72
e 15 74
e 15 78
e 16 18
e 16 24
e 16 31
e 16 34
e 16 38
e 16 39
e 16 41
e 16 48
e 16 58
e 16 63
e 16 65
e 16 70
e 16 72
e 16 73
e 16 74
e 17 18
e 17 19
e 17 21
e 17 24
e 17 27
e 17 33
e 17 40
e 17 44
e 17 52
e 17 57
e 17 68
e 17 72
e 17 78
e 18 21
e 18 23
e 18 25
e 18 29
e 18 37
e 18 43
e 18 49
e 18 52
e 18 53
e 18 55
e 18 57
e 18 64
e 18 67
e 18 77
e 19 23
e 19 26
e 19 36
e 19 39
e 19 40
e 19 42
e 19 43
e 19 47
e 19 48
e 19 50
e 19 51
e 19 53
e 19 54
e 19 59
e 19 67
e 19 80
e 20 22
e 20 23
e 20 25
e 20 27
e 20 32
e 20 37
e 20 38
e 20 41
e 20 46
e 20 48
e 20 49
e 20 54
e 20 60
e 20 64
e 20 68
e 20 69
e 20 80
e 21 28
e 21 30
e 21 37
e 21 38
e 21 39
e 21 41
e 21 42
e 21 43
e 21 47
e 21 48
e 21 50
e 21 52
e 21 57
e 21 59
e 21 78
e 22 26
e 22 33
e 22 41
e 22 44
e 22 45
e 22 63
e 22 69
e 22 79
e 23 30
e 23 31
e 23 43
e 23 52
e 23 55
e 23 56
e 23 63
e 23 66
e 23 70
e 23 71
e 23 73
e 23 75
e 24 25
e 24 40
e 24 41
e 24 42
e 24 53
e 24 54
e 24 56
e 24 63
e 24 64
e 24 67
e 24 69
e 24 71
e 24 72
e 24 74
e 25 30
e 25 32
e 25 35
e 25 38
e 25 44
e 25 45
e 25 47
e 25 56
e 25 58
e 25 65
e 25 71
e 26 31
e 26 39
e 26 40
e 26 41
e 26 42
e 26 49
e 26 55
e 26 56
e 26 58
e 26 63
e 26 67
e 26 70
e 27 30
e 27 37
e 27 42
e 27 45
e 27 48
e 27 54
e 27 55
e 27 60
e 27 61
e 27 66
e 27 70
e 27 72
e 27 79
e 28 35
e 28 40
e 28 49
e 28 53
e 28 58
e 28 60
e 28 62
e 28 68
e 28 70
e 28 71
e 28 72
e 29 30
e 29 38
e 29 41
e 29 51
e 29 58
e 29 65
e 29 67
e 29 68
e 29 71
e 30 33
e 30 44
e 30 45
e 30 48
e 30 53
e 30 54
e 30 60
e 30 68
e 30 76
e 30 78
e 31 32
e 31 33
e 31 44
e 31 47
e 31 51
e 31 52
e 31 53
e 31 54
e 31 55
e 31 59
e 31 63
e 31 67
e 31 68
e 31 70
e 31 74
e 31 77
e 31 78
e 31 80
e 32 44
e 32 48
e 32 50
e 32 52
e 32 59
e 32 61
e 32 66
e 32 71
e 32 77
e 32 80
e 33 42
e 33 44
e 33 47
e 33 55
e 33 62
e 33 68
e 33 76
e 33 79
e 33 80
e 34 41
e 34 44
e 34 46
e 34 51
e 34 53
e 34 55
e 34 76
e 34 79
e 35 37
e 35 48
e 35 53
e 35 55
e 35 56
e 35 62
e 35 71
e 36 38
e 36 43
e 36 46
e 36 49
e 36 50
e 36 51
e 36 53
e 36 56
e 36 70
e 36 74
e 37 40
e 37 41
e 37 42
e 37 65
e 38 46
e 38 51
e 38 58
e 38 59
e 38 67
e 39 42
e 39 43
e 39 51
e 39 55
e 39 66
e 39 69
e 39 73
e 40 45
e 40 47
e 40 60
e 40 64
e 40 74
e 40 75
e 40 76
e 40 79
e 41 44
e 41 49
e 41 51
e 41 56
e 41 63
e 41 73
e 41 75
e 41 76
e 41 80
e 42 51
e 42 55
e 42 57
e 42 75
e 42 80
e 43 46
e 43 47
e 43 53
e 43 56
e 43 60
e 43 73
e 43 74
e 43 75
e 43 77
e 44 51
e 44 53
e 44 54
e 44 70
e 44 72
e 45 46
e 45 47
e 45 59
e 45 62
e 45 63
e 45 67
e 45 68
e 45 69
e 45 76
e 45 77
e 45 80
e 46 50
e 46 66
e 46 69
e 46 71
e 46 72
e 46 75
e 47 48
e 47 49
e 47 51
e 47 52
e 47 54
e 47 56
e 47 60
e 47 63
e 47 64
e 47 65
e 47 76
e 47 80
e 48 53
e 48 59
e 48 61
e 48 63
e 48 79
e 49 50
e 49 73
e 49 79
e 50 53
e 50 54
e 50 56
e 50 67
e 50 70
e 51 52
e 51 56
e 51 62
e 51 69
e 51 72
e 51 75
e 52 57
e 52 58
e 52 67
e 52 73
e 52 78
e 53 57
e 53 67
e 53 68
e 54 58
e 54 65
e 54 75
e 55 63
e 55 70
e 55 77
e 55 80
e 56 58
e 56 70
e 56 73
e 57 63
e 57 69
e 57 73
e 57 74
e 57 78
e 58 63
e 58 64
e 58 66
e 58 72
e 58 74
e 58 75
e 58 78
e 58 79
e 58 80
e 59 60
e 59 63
e 59 69
e 59 72
e 59 73
e 59 74
e 59 75
e 59 77
e 59 79
e 60 76
e 60 79
e 61 70
e 61 73
e 61 74
e 61 75
e 62 65
e 62 72
e 62 78
e 62 79
e 63 67
e 63 77
e 64 65
e 64 68
e 64 69
e 64 72
e 64 73
e 64 76
e 65 66
e 65 68
e 65 71
e 65 73
e 65 78
e 65 80
e 66 71
e 66 73
e 67 73
e 68 71
e 68 75
e 68 77
e 69 73
e 69 75
e 70 73
e 70 77
e 70 78
e 71 72
e 71 73
e 71 74
e 71 76
e 71 77
e 72 74
e 72 79
e 73 76
e 73 80
e 75 79
e 76 78
e 78 80
e 79 80
